20
5
397754
0
0
44 49 62 43 60
1
0
55 46 52 67 39
2
0
45 61 52 52 38
3
0
46 53 55 49 54
4
0
53 68 43 64 79
5
0
50 50 70 63 51
6
0
62 90 67 57 38
7
0
52 54 45 49 38
8
0
31 48 36 42 54
9
0
38 39 52 50 44
10
0
68 77 46 45 49
11
0
57 44 63 53 45
12
0
56 62 47 48 46
13
0
39 67 44 45 46
14
0
45 46 43 49 38
15
0
65 39 45 51 38
16
0
49 49 44 65 55
17
0
76 67 63 53 40
18
0
45 52 56 28 70
19
0
43 44 64 54 41
